p tw 176 39601 2 
1 89 
1 91 
1 93 
1 96 
1 98 
1 100 
1 102 
1 104 
1 106 
1 108 
1 109 
1 111 
1 114 
1 116 
1 117 
1 120 
1 122 
1 124 
1 125 
1 128 
1 130 
1 131 
1 133 
1 136 
1 137 
1 140 
1 141 
1 143 
1 146 
1 147 
1 150 
1 151 
1 154 
1 155 
1 157 
1 160 
1 162 
1 163 
1 165 
1 167 
1 170 
1 171 
1 174 
1 175 
2 90 
2 92 
2 94 
2 95 
2 97 
2 99 
2 101 
2 103 
2 105 
2 107 
2 110 
2 112 
2 113 
2 115 
2 118 
2 119 
2 121 
2 123 
2 126 
2 127 
2 129 
2 132 
2 134 
2 135 
2 138 
2 139 
2 142 
2 144 
2 145 
2 148 
2 149 
2 152 
2 153 
2 156 
2 158 
2 159 
2 161 
2 164 
2 166 
2 168 
2 169 
2 172 
2 173 
2 176 
3 4 
3 89 
3 91 
3 93 
3 96 
3 97 
3 100 
3 101 
3 104 
3 105 
3 107 
3 110 
3 112 
3 114 
3 116 
3 118 
3 119 
3 122 
3 124 
3 126 
3 127 
3 129 
3 131 
3 133 
3 135 
3 137 
3 140 
3 142 
3 144 
3 146 
3 148 
3 149 
3 152 
3 153 
3 155 
3 157 
3 159 
3 162 
3 164 
3 165 
3 167 
3 170 
3 172 
3 173 
3 175 
4 90 
4 92 
4 94 
4 95 
4 98 
4 99 
4 102 
4 103 
4 106 
4 108 
4 109 
4 111 
4 113 
4 115 
4 117 
4 120 
4 121 
4 123 
4 125 
4 128 
4 130 
4 132 
4 134 
4 136 
4 138 
4 139 
4 141 
4 143 
4 145 
4 147 
4 150 
4 151 
4 154 
4 156 
4 158 
4 160 
4 161 
4 163 
4 166 
4 168 
4 169 
4 171 
4 174 
4 176 
5 6 
5 90 
5 91 
5 94 
5 96 
5 97 
5 100 
5 102 
5 104 
5 105 
5 108 
5 109 
5 111 
5 114 
5 115 
5 118 
5 119 
5 122 
5 124 
5 125 
5 128 
5 130 
5 131 
5 134 
5 135 
5 138 
5 139 
5 141 
5 143 
5 146 
5 148 
5 149 
5 151 
5 153 
5 155 
5 158 
5 159 
5 161 
5 164 
5 166 
5 168 
5 169 
5 171 
5 173 
5 175 
6 89 
6 92 
6 93 
6 95 
6 98 
6 99 
6 101 
6 103 
6 106 
6 107 
6 110 
6 112 
6 113 
6 116 
6 117 
6 120 
6 121 
6 123 
6 126 
6 127 
6 129 
6 132 
6 133 
6 136 
6 137 
6 140 
6 142 
6 144 
6 145 
6 147 
6 150 
6 152 
6 154 
6 156 
6 157 
6 160 
6 162 
6 163 
6 165 
6 167 
6 170 
6 172 
6 174 
6 176 
7 8 
7 89 
7 91 
7 94 
7 95 
7 97 
7 100 
7 101 
7 104 
7 106 
7 107 
7 109 
7 111 
7 113 
7 116 
7 117 
7 119 
7 122 
7 123 
7 125 
7 128 
7 129 
7 131 
7 134 
7 136 
7 138 
7 140 
7 142 
7 143 
7 145 
7 147 
7 150 
7 152 
7 153 
7 156 
7 157 
7 159 
7 162 
7 164 
7 166 
7 168 
7 169 
7 172 
7 174 
7 175 
8 90 
8 92 
8 93 
8 96 
8 98 
8 99 
8 102 
8 103 
8 105 
8 108 
8 110 
8 112 
8 114 
8 115 
8 118 
8 120 
8 121 
8 124 
8 126 
8 127 
8 130 
8 132 
8 133 
8 135 
8 137 
8 139 
8 141 
8 144 
8 146 
8 148 
8 149 
8 151 
8 154 
8 155 
8 158 
8 160 
8 161 
8 163 
8 165 
8 167 
8 170 
8 171 
8 173 
8 176 
9 10 
9 90 
9 91 
9 93 
9 96 
9 97 
9 100 
9 102 
9 103 
9 106 
9 108 
9 109 
9 112 
9 114 
9 115 
9 118 
9 119 
9 121 
9 123 
9 125 
9 127 
9 129 
9 131 
9 133 
9 136 
9 137 
9 140 
9 141 
9 144 
9 145 
9 147 
9 149 
9 152 
9 154 
9 156 
9 157 
9 159 
9 161 
9 164 
9 166 
9 168 
9 170 
9 171 
9 174 
9 176 
10 89 
10 92 
10 94 
10 95 
10 98 
10 99 
10 101 
10 104 
10 105 
10 107 
10 110 
10 111 
10 113 
10 116 
10 117 
10 120 
10 122 
10 124 
10 126 
10 128 
10 130 
10 132 
10 134 
10 135 
10 138 
10 139 
10 142 
10 143 
10 146 
10 148 
10 150 
10 151 
10 153 
10 155 
10 158 
10 160 
10 162 
10 163 
10 165 
10 167 
10 169 
10 172 
10 173 
10 175 
11 12 
11 90 
11 91 
11 93 
11 95 
11 98 
11 100 
11 102 
11 104 
11 105 
11 107 
11 110 
11 111 
11 113 
11 115 
11 118 
11 120 
11 122 
11 123 
11 125 
11 127 
11 129 
11 131 
11 133 
11 135 
11 138 
11 140 
11 142 
11 143 
11 146 
11 148 
11 149 
11 152 
11 154 
11 156 
11 158 
11 160 
11 162 
11 163 
11 165 
11 168 
11 169 
11 171 
11 174 
11 176 
12 89 
12 92 
12 94 
12 96 
12 97 
12 99 
12 101 
12 103 
12 106 
12 108 
12 109 
12 112 
12 114 
12 116 
12 117 
12 119 
12 121 
12 124 
12 126 
12 128 
12 130 
12 132 
12 134 
12 136 
12 137 
12 139 
12 141 
12 144 
12 145 
12 147 
12 150 
12 151 
12 153 
12 155 
12 157 
12 159 
12 161 
12 164 
12 166 
12 167 
12 170 
12 172 
12 173 
12 175 
13 14 
13 90 
13 91 
13 94 
13 95 
13 97 
13 100 
13 102 
13 103 
13 106 
13 108 
13 109 
13 111 
13 113 
13 116 
13 118 
13 120 
13 122 
13 123 
13 126 
13 127 
13 129 
13 131 
13 134 
13 135 
13 137 
13 139 
13 142 
13 144 
13 146 
13 147 
13 150 
13 151 
13 154 
13 155 
13 158 
13 159 
13 162 
13 163 
13 166 
13 167 
13 170 
13 172 
13 173 
13 176 
14 89 
14 92 
14 93 
14 96 
14 98 
14 99 
14 101 
14 104 
14 105 
14 107 
14 110 
14 112 
14 114 
14 115 
14 117 
14 119 
14 121 
14 124 
14 125 
14 128 
14 130 
14 132 
14 133 
14 136 
14 138 
14 140 
14 141 
14 143 
14 145 
14 148 
14 149 
14 152 
14 153 
14 156 
14 157 
14 160 
14 161 
14 164 
14 165 
14 168 
14 169 
14 171 
14 174 
14 175 
15 16 
15 90 
15 92 
15 93 
15 95 
15 97 
15 99 
15 101 
15 103 
15 106 
15 107 
15 109 
15 111 
15 114 
15 115 
15 117 
15 119 
15 122 
15 124 
15 125 
15 127 
15 130 
15 131 
15 133 
15 135 
15 138 
15 140 
15 142 
15 143 
15 145 
15 147 
15 149 
15 151 
15 154 
15 155 
15 157 
15 159 
15 161 
15 163 
15 165 
15 167 
15 169 
15 172 
15 173 
15 176 
16 89 
16 91 
16 94 
16 96 
16 98 
16 100 
16 102 
16 104 
16 105 
16 108 
16 110 
16 112 
16 113 
16 116 
16 118 
16 120 
16 121 
16 123 
16 126 
16 128 
16 129 
16 132 
16 134 
16 136 
16 137 
16 139 
16 141 
16 144 
16 146 
16 148 
16 150 
16 152 
16 153 
16 156 
16 158 
16 160 
16 162 
16 164 
16 166 
16 168 
16 170 
16 171 
16 174 
16 175 
17 18 
17 89 
17 91 
17 94 
17 96 
17 98 
17 99 
17 102 
17 103 
17 106 
17 107 
17 109 
17 112 
17 114 
17 115 
17 117 
17 120 
17 122 
17 123 
17 126 
17 127 
17 130 
17 131 
17 134 
17 135 
17 137 
17 140 
17 141 
17 143 
17 145 
17 148 
17 150 
17 152 
17 153 
17 156 
17 158 
17 159 
17 162 
17 164 
17 165 
17 167 
17 169 
17 171 
17 173 
17 176 
18 90 
18 92 
18 93 
18 95 
18 97 
18 100 
18 101 
18 104 
18 105 
18 108 
18 110 
18 111 
18 113 
18 116 
18 118 
18 119 
18 121 
18 124 
18 125 
18 128 
18 129 
18 132 
18 133 
18 136 
18 138 
18 139 
18 142 
18 144 
18 146 
18 147 
18 149 
18 151 
18 154 
18 155 
18 157 
18 160 
18 161 
18 163 
18 166 
18 168 
18 170 
18 172 
18 174 
18 175 
19 20 
19 89 
19 91 
19 94 
19 95 
19 97 
19 99 
19 102 
19 103 
19 105 
19 107 
19 110 
19 112 
19 113 
19 116 
19 117 
19 120 
19 121 
19 124 
19 126 
19 128 
19 130 
19 131 
19 133 
19 135 
19 138 
19 140 
19 141 
19 144 
19 146 
19 147 
19 149 
19 151 
19 154 
19 155 
19 157 
19 159 
19 162 
19 164 
19 166 
19 168 
19 169 
19 171 
19 174 
19 176 
20 90 
20 92 
20 93 
20 96 
20 98 
20 100 
20 101 
20 104 
20 106 
20 108 
20 109 
20 111 
20 114 
20 115 
20 118 
20 119 
20 122 
20 123 
20 125 
20 127 
20 129 
20 132 
20 134 
20 136 
20 137 
20 139 
20 142 
20 143 
20 145 
20 148 
20 150 
20 152 
20 153 
20 156 
20 158 
20 160 
20 161 
20 163 
20 165 
20 167 
20 170 
20 172 
20 173 
20 175 
21 22 
21 89 
21 91 
21 93 
21 96 
21 97 
21 99 
21 101 
21 104 
21 105 
21 108 
21 109 
21 111 
21 113 
21 115 
21 118 
21 120 
21 121 
21 123 
21 126 
21 128 
21 130 
21 132 
21 133 
21 136 
21 137 
21 140 
21 142 
21 143 
21 146 
21 147 
21 150 
21 152 
21 154 
21 155 
21 158 
21 159 
21 161 
21 164 
21 165 
21 168 
21 169 
21 172 
21 173 
21 176 
22 90 
22 92 
22 94 
22 95 
22 98 
22 100 
22 102 
22 103 
22 106 
22 107 
22 110 
22 112 
22 114 
22 116 
22 117 
22 119 
22 122 
22 124 
22 125 
22 127 
22 129 
22 131 
22 134 
22 135 
22 138 
22 139 
22 141 
22 144 
22 145 
22 148 
22 149 
22 151 
22 153 
22 156 
22 157 
22 160 
22 162 
22 163 
22 166 
22 167 
22 170 
22 171 
22 174 
22 175 
23 24 
23 89 
23 91 
23 93 
23 96 
23 98 
23 99 
23 101 
23 104 
23 106 
23 108 
23 109 
23 112 
23 113 
23 115 
23 117 
23 120 
23 122 
23 124 
23 125 
23 128 
23 129 
23 132 
23 134 
23 135 
23 138 
23 139 
23 142 
23 144 
23 145 
23 148 
23 149 
23 152 
23 154 
23 155 
23 157 
23 159 
23 162 
23 163 
23 166 
23 168 
23 170 
23 171 
23 173 
23 176 
24 90 
24 92 
24 94 
24 95 
24 97 
24 100 
24 102 
24 103 
24 105 
24 107 
24 110 
24 111 
24 114 
24 116 
24 118 
24 119 
24 121 
24 123 
24 126 
24 127 
24 130 
24 131 
24 133 
24 136 
24 137 
24 140 
24 141 
24 143 
24 146 
24 147 
24 150 
24 151 
24 153 
24 156 
24 158 
24 160 
24 161 
24 164 
24 165 
24 167 
24 169 
24 172 
24 174 
24 175 
25 26 
25 90 
25 91 
25 94 
25 95 
25 97 
25 99 
25 102 
25 104 
25 105 
25 107 
25 109 
25 112 
25 114 
25 116 
25 118 
25 120 
25 121 
25 123 
25 125 
25 127 
25 130 
25 132 
25 134 
25 136 
25 138 
25 139 
25 142 
25 143 
25 145 
25 147 
25 149 
25 152 
25 154 
25 155 
25 157 
25 160 
25 162 
25 164 
25 165 
25 167 
25 170 
25 171 
25 173 
25 175 
26 89 
26 92 
26 93 
26 96 
26 98 
26 100 
26 101 
26 103 
26 106 
26 108 
26 110 
26 111 
26 113 
26 115 
26 117 
26 119 
26 122 
26 124 
26 126 
26 128 
26 129 
26 131 
26 133 
26 135 
26 137 
26 140 
26 141 
26 144 
26 146 
26 148 
26 150 
26 151 
26 153 
26 156 
26 158 
26 159 
26 161 
26 163 
26 166 
26 168 
26 169 
26 172 
26 174 
26 176 
27 28 
27 89 
27 91 
27 93 
27 95 
27 98 
27 99 
27 102 
27 104 
27 106 
27 108 
27 110 
27 111 
27 114 
27 116 
27 118 
27 120 
27 122 
27 123 
27 126 
27 127 
27 129 
27 132 
27 133 
27 136 
27 138 
27 139 
27 141 
27 143 
27 145 
27 148 
27 149 
27 151 
27 153 
27 155 
27 157 
27 159 
27 161 
27 164 
27 166 
27 167 
27 169 
27 172 
27 174 
27 176 
28 90 
28 92 
28 94 
28 96 
28 97 
28 100 
28 101 
28 103 
28 105 
28 107 
28 109 
28 112 
28 113 
28 115 
28 117 
28 119 
28 121 
28 124 
28 125 
28 128 
28 130 
28 131 
28 134 
28 135 
28 137 
28 140 
28 142 
28 144 
28 146 
28 147 
28 150 
28 152 
28 154 
28 156 
28 158 
28 160 
28 162 
28 163 
28 165 
28 168 
28 170 
28 171 
28 173 
28 175 
29 30 
29 90 
29 91 
29 94 
29 96 
29 97 
29 99 
29 101 
29 103 
29 105 
29 108 
29 109 
29 111 
29 113 
29 116 
29 117 
29 120 
29 122 
29 124 
29 125 
29 127 
29 129 
29 132 
29 134 
29 136 
29 137 
29 140 
29 142 
29 144 
29 146 
29 148 
29 149 
29 151 
29 153 
29 156 
29 157 
29 160 
29 161 
29 164 
29 165 
29 167 
29 169 
29 171 
29 174 
29 176 
30 89 
30 92 
30 93 
30 95 
30 98 
30 100 
30 102 
30 104 
30 106 
30 107 
30 110 
30 112 
30 114 
30 115 
30 118 
30 119 
30 121 
30 123 
30 126 
30 128 
30 130 
30 131 
30 133 
30 135 
30 138 
30 139 
30 141 
30 143 
30 145 
30 147 
30 150 
30 152 
30 154 
30 155 
30 158 
30 159 
30 162 
30 163 
30 166 
30 168 
30 170 
30 172 
30 173 
30 175 
31 32 
31 90 
31 92 
31 93 
31 96 
31 97 
31 100 
31 101 
31 103 
31 106 
31 107 
31 110 
31 111 
31 114 
31 115 
31 117 
31 120 
31 122 
31 123 
31 126 
31 128 
31 129 
31 132 
31 134 
31 136 
31 138 
31 139 
31 141 
31 144 
31 146 
31 147 
31 149 
31 152 
31 154 
31 155 
31 158 
31 159 
31 162 
31 164 
31 165 
31 167 
31 169 
31 171 
31 174 
31 175 
32 89 
32 91 
32 94 
32 95 
32 98 
32 99 
32 102 
32 104 
32 105 
32 108 
32 109 
32 112 
32 113 
32 116 
32 118 
32 119 
32 121 
32 124 
32 125 
32 127 
32 130 
32 131 
32 133 
32 135 
32 137 
32 140 
32 142 
32 143 
32 145 
32 148 
32 150 
32 151 
32 153 
32 156 
32 157 
32 160 
32 161 
32 163 
32 166 
32 168 
32 170 
32 172 
32 173 
32 176 
33 34 
33 90 
33 91 
33 94 
33 96 
33 97 
33 100 
33 101 
33 104 
33 106 
33 107 
33 110 
33 112 
33 113 
33 116 
33 117 
33 119 
33 122 
33 123 
33 126 
33 127 
33 130 
33 132 
33 133 
33 136 
33 138 
33 139 
33 141 
33 143 
33 146 
33 148 
33 150 
33 151 
33 154 
33 156 
33 157 
33 159 
33 161 
33 163 
33 165 
33 168 
33 170 
33 171 
33 173 
33 176 
34 89 
34 92 
34 93 
34 95 
34 98 
34 99 
34 102 
34 103 
34 105 
34 108 
34 109 
34 111 
34 114 
34 115 
34 118 
34 120 
34 121 
34 124 
34 125 
34 128 
34 129 
34 131 
34 134 
34 135 
34 137 
34 140 
34 142 
34 144 
34 145 
34 147 
34 149 
34 152 
34 153 
34 155 
34 158 
34 160 
34 162 
34 164 
34 166 
34 167 
34 169 
34 172 
34 174 
34 175 
35 36 
35 89 
35 91 
35 94 
35 96 
35 98 
35 100 
35 102 
35 103 
35 105 
35 107 
35 110 
35 111 
35 114 
35 116 
35 117 
35 120 
35 122 
35 124 
35 125 
35 127 
35 130 
35 132 
35 133 
35 136 
35 137 
35 139 
35 142 
35 144 
35 145 
35 147 
35 149 
35 152 
35 154 
35 156 
35 158 
35 159 
35 161 
35 163 
35 166 
35 168 
35 169 
35 172 
35 173 
35 175 
36 90 
36 92 
36 93 
36 95 
36 97 
36 99 
36 101 
36 104 
36 106 
36 108 
36 109 
36 112 
36 113 
36 115 
36 118 
36 119 
36 121 
36 123 
36 126 
36 128 
36 129 
36 131 
36 134 
36 135 
36 138 
36 140 
36 141 
36 143 
36 146 
36 148 
36 150 
36 151 
36 153 
36 155 
36 157 
36 160 
36 162 
36 164 
36 165 
36 167 
36 170 
36 171 
36 174 
36 176 
37 38 
37 90 
37 92 
37 93 
37 95 
37 98 
37 100 
37 101 
37 103 
37 105 
37 107 
37 109 
37 111 
37 113 
37 116 
37 118 
37 120 
37 122 
37 124 
37 126 
37 127 
37 130 
37 132 
37 134 
37 135 
37 137 
37 140 
37 141 
37 143 
37 145 
37 148 
37 150 
37 152 
37 154 
37 155 
37 157 
37 159 
37 161 
37 164 
37 166 
37 168 
37 170 
37 171 
37 174 
37 175 
38 89 
38 91 
38 94 
38 96 
38 97 
38 99 
38 102 
38 104 
38 106 
38 108 
38 110 
38 112 
38 114 
38 115 
38 117 
38 119 
38 121 
38 123 
38 125 
38 128 
38 129 
38 131 
38 133 
38 136 
38 138 
38 139 
38 142 
38 144 
38 146 
38 147 
38 149 
38 151 
38 153 
38 156 
38 158 
38 160 
38 162 
38 163 
38 165 
38 167 
38 169 
38 172 
38 173 
38 176 
39 40 
39 89 
39 91 
39 93 
39 96 
39 97 
39 100 
39 102 
39 103 
39 105 
39 107 
39 110 
39 111 
39 113 
39 115 
39 117 
39 119 
39 121 
39 124 
39 125 
39 127 
39 129 
39 132 
39 134 
39 136 
39 138 
39 140 
39 141 
39 143 
39 145 
39 148 
39 150 
39 151 
39 154 
39 155 
39 158 
39 160 
39 162 
39 164 
39 166 
39 167 
39 170 
39 172 
39 173 
39 176 
40 90 
40 92 
40 94 
40 95 
40 98 
40 99 
40 101 
40 104 
40 106 
40 108 
40 109 
40 112 
40 114 
40 116 
40 118 
40 120 
40 122 
40 123 
40 126 
40 128 
40 130 
40 131 
40 133 
40 135 
40 137 
40 139 
40 142 
40 144 
40 146 
40 147 
40 149 
40 152 
40 153 
40 156 
40 157 
40 159 
40 161 
40 163 
40 165 
40 168 
40 169 
40 171 
40 174 
40 175 
41 42 
41 90 
41 91 
41 94 
41 96 
41 98 
41 99 
41 102 
41 104 
41 106 
41 107 
41 110 
41 111 
41 114 
41 115 
41 118 
41 119 
41 122 
41 124 
41 126 
41 128 
41 130 
41 132 
41 134 
41 135 
41 138 
41 140 
41 142 
41 144 
41 146 
41 147 
41 150 
41 152 
41 154 
41 156 
41 157 
41 160 
41 161 
41 164 
41 166 
41 167 
41 170 
41 172 
41 174 
41 176 
42 89 
42 92 
42 93 
42 95 
42 97 
42 100 
42 101 
42 103 
42 105 
42 108 
42 109 
42 112 
42 113 
42 116 
42 117 
42 120 
42 121 
42 123 
42 125 
42 127 
42 129 
42 131 
42 133 
42 136 
42 137 
42 139 
42 141 
42 143 
42 145 
42 148 
42 149 
42 151 
42 153 
42 155 
42 158 
42 159 
42 162 
42 163 
42 165 
42 168 
42 169 
42 171 
42 173 
42 175 
43 44 
43 90 
43 91 
43 94 
43 95 
43 98 
43 99 
43 101 
43 103 
43 106 
43 108 
43 110 
43 111 
43 114 
43 115 
43 117 
43 119 
43 121 
43 124 
43 126 
43 127 
43 129 
43 131 
43 133 
43 136 
43 137 
43 139 
43 142 
43 143 
43 146 
43 148 
43 150 
43 152 
43 154 
43 155 
43 157 
43 160 
43 162 
43 164 
43 166 
43 168 
43 169 
43 171 
43 173 
43 175 
44 89 
44 92 
44 93 
44 96 
44 97 
44 100 
44 102 
44 104 
44 105 
44 107 
44 109 
44 112 
44 113 
44 116 
44 118 
44 120 
44 122 
44 123 
44 125 
44 128 
44 130 
44 132 
44 134 
44 135 
44 138 
44 140 
44 141 
44 144 
44 145 
44 147 
44 149 
44 151 
44 153 
44 156 
44 158 
44 159 
44 161 
44 163 
44 165 
44 167 
44 170 
44 172 
44 174 
44 176 
45 46 
45 90 
45 92 
45 94 
45 95 
45 97 
45 99 
45 102 
45 104 
45 105 
45 108 
45 110 
45 111 
45 114 
45 115 
45 117 
45 120 
45 122 
45 123 
45 125 
45 128 
45 129 
45 132 
45 133 
45 135 
45 137 
45 140 
45 141 
45 144 
45 145 
45 148 
45 150 
45 151 
45 154 
45 156 
45 157 
45 159 
45 162 
45 164 
45 165 
45 168 
45 170 
45 172 
45 173 
45 175 
46 89 
46 91 
46 93 
46 96 
46 98 
46 100 
46 101 
46 103 
46 106 
46 107 
46 109 
46 112 
46 113 
46 116 
46 118 
46 119 
46 121 
46 124 
46 126 
46 127 
46 130 
46 131 
46 134 
46 136 
46 138 
46 139 
46 142 
46 143 
46 146 
46 147 
46 149 
46 152 
46 153 
46 155 
46 158 
46 160 
46 161 
46 163 
46 166 
46 167 
46 169 
46 171 
46 174 
46 176 
47 48 
47 89 
47 92 
47 93 
47 96 
47 97 
47 99 
47 102 
47 103 
47 106 
47 108 
47 110 
47 112 
47 113 
47 116 
47 118 
47 120 
47 122 
47 124 
47 125 
47 127 
47 129 
47 131 
47 134 
47 135 
47 138 
47 139 
47 141 
47 143 
47 146 
47 147 
47 150 
47 152 
47 154 
47 156 
47 157 
47 160 
47 161 
47 164 
47 165 
47 168 
47 169 
47 172 
47 173 
47 175 
48 90 
48 91 
48 94 
48 95 
48 98 
48 100 
48 101 
48 104 
48 105 
48 107 
48 109 
48 111 
48 114 
48 115 
48 117 
48 119 
48 121 
48 123 
48 126 
48 128 
48 130 
48 132 
48 133 
48 136 
48 137 
48 140 
48 142 
48 144 
48 145 
48 148 
48 149 
48 151 
48 153 
48 155 
48 158 
48 159 
48 162 
48 163 
48 166 
48 167 
48 170 
48 171 
48 174 
48 176 
49 50 
49 89 
49 91 
49 93 
49 95 
49 98 
49 100 
49 101 
49 103 
49 106 
49 107 
49 109 
49 111 
49 114 
49 116 
49 118 
49 119 
49 121 
49 123 
49 125 
49 128 
49 130 
49 132 
49 134 
49 135 
49 137 
49 139 
49 141 
49 144 
49 146 
49 148 
49 149 
49 151 
49 154 
49 156 
49 157 
49 160 
49 162 
49 164 
49 165 
49 168 
49 169 
49 172 
49 173 
49 176 
50 90 
50 92 
50 94 
50 96 
50 97 
50 99 
50 102 
50 104 
50 105 
50 108 
50 110 
50 112 
50 113 
50 115 
50 117 
50 120 
50 122 
50 124 
50 126 
50 127 
50 129 
50 131 
50 133 
50 136 
50 138 
50 140 
50 142 
50 143 
50 145 
50 147 
50 150 
50 152 
50 153 
50 155 
50 158 
50 159 
50 161 
50 163 
50 166 
50 167 
50 170 
50 171 
50 174 
50 175 
51 52 
51 90 
51 92 
51 94 
51 96 
51 98 
51 100 
51 101 
51 104 
51 106 
51 108 
51 110 
51 112 
51 114 
51 116 
51 118 
51 120 
51 121 
51 124 
51 125 
51 127 
51 130 
51 131 
51 134 
51 136 
51 138 
51 140 
51 142 
51 144 
51 145 
51 148 
51 150 
51 151 
51 154 
51 155 
51 158 
51 159 
51 162 
51 164 
51 165 
51 168 
51 169 
51 172 
51 174 
51 176 
52 89 
52 91 
52 93 
52 95 
52 97 
52 99 
52 102 
52 103 
52 105 
52 107 
52 109 
52 111 
52 113 
52 115 
52 117 
52 119 
52 122 
52 123 
52 126 
52 128 
52 129 
52 132 
52 133 
52 135 
52 137 
52 139 
52 141 
52 143 
52 146 
52 147 
52 149 
52 152 
52 153 
52 156 
52 157 
52 160 
52 161 
52 163 
52 166 
52 167 
52 170 
52 171 
52 173 
52 175 
53 54 
53 89 
53 92 
53 94 
53 95 
53 98 
53 100 
53 101 
53 104 
53 105 
53 108 
53 109 
53 112 
53 114 
53 116 
53 117 
53 119 
53 122 
53 123 
53 125 
53 127 
53 129 
53 132 
53 133 
53 135 
53 138 
53 140 
53 141 
53 144 
53 146 
53 147 
53 150 
53 152 
53 154 
53 155 
53 158 
53 160 
53 161 
53 164 
53 166 
53 167 
53 169 
53 171 
53 173 
53 176 
54 90 
54 91 
54 93 
54 96 
54 97 
54 99 
54 102 
54 103 
54 106 
54 107 
54 110 
54 111 
54 113 
54 115 
54 118 
54 120 
54 121 
54 124 
54 126 
54 128 
54 130 
54 131 
54 134 
54 136 
54 137 
54 139 
54 142 
54 143 
54 145 
54 148 
54 149 
54 151 
54 153 
54 156 
54 157 
54 159 
54 162 
54 163 
54 165 
54 168 
54 170 
54 172 
54 174 
54 175 
55 56 
55 90 
55 91 
55 93 
55 95 
55 98 
55 99 
55 101 
55 104 
55 106 
55 107 
55 110 
55 112 
55 113 
55 115 
55 117 
55 120 
55 122 
55 123 
55 125 
55 127 
55 130 
55 131 
55 134 
55 136 
55 137 
55 140 
55 141 
55 144 
55 146 
55 147 
55 149 
55 151 
55 153 
55 155 
55 158 
55 160 
55 161 
55 164 
55 166 
55 168 
55 170 
55 172 
55 173 
55 175 
56 89 
56 92 
56 94 
56 96 
56 97 
56 100 
56 102 
56 103 
56 105 
56 108 
56 109 
56 111 
56 114 
56 116 
56 118 
56 119 
56 121 
56 124 
56 126 
56 128 
56 129 
56 132 
56 133 
56 135 
56 138 
56 139 
56 142 
56 143 
56 145 
56 148 
56 150 
56 152 
56 154 
56 156 
56 157 
56 159 
56 162 
56 163 
56 165 
56 167 
56 169 
56 171 
56 174 
56 176 
57 58 
57 89 
57 92 
57 94 
57 96 
57 98 
57 99 
57 102 
57 103 
57 106 
57 107 
57 109 
57 111 
57 113 
57 116 
57 118 
57 119 
57 122 
57 123 
57 126 
57 128 
57 129 
57 131 
57 133 
57 136 
57 138 
57 140 
57 142 
57 144 
57 145 
57 148 
57 149 
57 151 
57 154 
57 155 
57 158 
57 160 
57 161 
57 164 
57 165 
57 168 
57 170 
57 171 
57 173 
57 175 
58 90 
58 91 
58 93 
58 95 
58 97 
58 100 
58 101 
58 104 
58 105 
58 108 
58 110 
58 112 
58 114 
58 115 
58 117 
58 120 
58 121 
58 124 
58 125 
58 127 
58 130 
58 132 
58 134 
58 135 
58 137 
58 139 
58 141 
58 143 
58 146 
58 147 
58 150 
58 152 
58 153 
58 156 
58 157 
58 159 
58 162 
58 163 
58 166 
58 167 
58 169 
58 172 
58 174 
58 176 
59 60 
59 90 
59 91 
59 93 
59 95 
59 97 
59 99 
59 102 
59 104 
59 105 
59 107 
59 109 
59 112 
59 114 
59 116 
59 117 
59 119 
59 122 
59 124 
59 126 
59 128 
59 129 
59 131 
59 134 
59 136 
59 137 
59 139 
59 141 
59 144 
59 145 
59 148 
59 150 
59 152 
59 154 
59 155 
59 158 
59 160 
59 161 
59 163 
59 165 
59 168 
59 169 
59 172 
59 174 
59 176 
60 89 
60 92 
60 94 
60 96 
60 98 
60 100 
60 101 
60 103 
60 106 
60 108 
60 110 
60 111 
60 113 
60 115 
60 118 
60 120 
60 121 
60 123 
60 125 
60 127 
60 130 
60 132 
60 133 
60 135 
60 138 
60 140 
60 142 
60 143 
60 146 
60 147 
60 149 
60 151 
60 153 
60 156 
60 157 
60 159 
60 162 
60 164 
60 166 
60 167 
60 170 
60 171 
60 173 
60 175 
61 62 
61 90 
61 91 
61 93 
61 95 
61 98 
61 100 
61 102 
61 104 
61 106 
61 108 
61 110 
61 112 
61 113 
61 116 
61 117 
61 119 
61 121 
61 124 
61 126 
61 128 
61 129 
61 132 
61 134 
61 135 
61 137 
61 140 
61 142 
61 143 
61 145 
61 147 
61 149 
61 151 
61 154 
61 156 
61 158 
61 159 
61 161 
61 164 
61 165 
61 167 
61 169 
61 171 
61 173 
61 175 
62 89 
62 92 
62 94 
62 96 
62 97 
62 99 
62 101 
62 103 
62 105 
62 107 
62 109 
62 111 
62 114 
62 115 
62 118 
62 120 
62 122 
62 123 
62 125 
62 127 
62 130 
62 131 
62 133 
62 136 
62 138 
62 139 
62 141 
62 144 
62 146 
62 148 
62 150 
62 152 
62 153 
62 155 
62 157 
62 160 
62 162 
62 163 
62 166 
62 168 
62 170 
62 172 
62 174 
62 176 
63 64 
63 90 
63 91 
63 93 
63 96 
63 98 
63 100 
63 102 
63 103 
63 105 
63 108 
63 109 
63 112 
63 113 
63 115 
63 117 
63 119 
63 122 
63 123 
63 126 
63 127 
63 130 
63 132 
63 133 
63 135 
63 138 
63 139 
63 142 
63 144 
63 145 
63 147 
63 150 
63 151 
63 153 
63 155 
63 157 
63 160 
63 162 
63 164 
63 165 
63 168 
63 169 
63 172 
63 174 
63 175 
64 89 
64 92 
64 94 
64 95 
64 97 
64 99 
64 101 
64 104 
64 106 
64 107 
64 110 
64 111 
64 114 
64 116 
64 118 
64 120 
64 121 
64 124 
64 125 
64 128 
64 129 
64 131 
64 134 
64 136 
64 137 
64 140 
64 141 
64 143 
64 146 
64 148 
64 149 
64 152 
64 154 
64 156 
64 158 
64 159 
64 161 
64 163 
64 166 
64 167 
64 170 
64 171 
64 173 
64 176 
65 66 
65 89 
65 91 
65 94 
65 95 
65 97 
65 100 
65 101 
65 104 
65 106 
65 108 
65 109 
65 111 
65 113 
65 115 
65 117 
65 120 
65 121 
65 124 
65 126 
65 127 
65 130 
65 131 
65 133 
65 135 
65 138 
65 139 
65 141 
65 144 
65 145 
65 148 
65 149 
65 152 
65 154 
65 156 
65 158 
65 160 
65 161 
65 164 
65 165 
65 167 
65 170 
65 172 
65 174 
65 175 
66 90 
66 92 
66 93 
66 96 
66 98 
66 99 
66 102 
66 103 
66 105 
66 107 
66 110 
66 112 
66 114 
66 116 
66 118 
66 119 
66 122 
66 123 
66 125 
66 128 
66 129 
66 132 
66 134 
66 136 
66 137 
66 140 
66 142 
66 143 
66 146 
66 147 
66 150 
66 151 
66 153 
66 155 
66 157 
66 159 
66 162 
66 163 
66 166 
66 168 
66 169 
66 171 
66 173 
66 176 
67 68 
67 90 
67 92 
67 94 
67 96 
67 98 
67 100 
67 101 
67 104 
67 105 
67 107 
67 109 
67 112 
67 113 
67 115 
67 118 
67 120 
67 122 
67 124 
67 126 
67 128 
67 129 
67 131 
67 133 
67 136 
67 137 
67 139 
67 141 
67 143 
67 145 
67 147 
67 149 
67 151 
67 154 
67 156 
67 157 
67 160 
67 162 
67 164 
67 166 
67 167 
67 169 
67 172 
67 173 
67 176 
68 89 
68 91 
68 93 
68 95 
68 97 
68 99 
68 102 
68 103 
68 106 
68 108 
68 110 
68 111 
68 114 
68 116 
68 117 
68 119 
68 121 
68 123 
68 125 
68 127 
68 130 
68 132 
68 134 
68 135 
68 138 
68 140 
68 142 
68 144 
68 146 
68 148 
68 150 
68 152 
68 153 
68 155 
68 158 
68 159 
68 161 
68 163 
68 165 
68 168 
68 170 
68 171 
68 174 
68 175 
69 70 
69 90 
69 91 
69 93 
69 95 
69 98 
69 99 
69 101 
69 103 
69 105 
69 108 
69 110 
69 111 
69 113 
69 116 
69 118 
69 119 
69 122 
69 124 
69 125 
69 128 
69 130 
69 131 
69 133 
69 136 
69 138 
69 139 
69 141 
69 144 
69 145 
69 147 
69 150 
69 152 
69 153 
69 156 
69 158 
69 159 
69 162 
69 164 
69 165 
69 167 
69 170 
69 171 
69 173 
69 176 
70 89 
70 92 
70 94 
70 96 
70 97 
70 100 
70 102 
70 104 
70 106 
70 107 
70 109 
70 112 
70 114 
70 115 
70 117 
70 120 
70 121 
70 123 
70 126 
70 127 
70 129 
70 132 
70 134 
70 135 
70 137 
70 140 
70 142 
70 143 
70 146 
70 148 
70 149 
70 151 
70 154 
70 155 
70 157 
70 160 
70 161 
70 163 
70 166 
70 168 
70 169 
70 172 
70 174 
70 175 
71 72 
71 89 
71 91 
71 93 
71 95 
71 97 
71 100 
71 101 
71 103 
71 105 
71 108 
71 110 
71 112 
71 114 
71 115 
71 118 
71 120 
71 122 
71 123 
71 126 
71 128 
71 130 
71 131 
71 134 
71 136 
71 138 
71 140 
71 142 
71 144 
71 145 
71 148 
71 150 
71 151 
71 154 
71 156 
71 157 
71 160 
71 161 
71 163 
71 166 
71 167 
71 169 
71 171 
71 173 
71 175 
72 90 
72 92 
72 94 
72 96 
72 98 
72 99 
72 102 
72 104 
72 106 
72 107 
72 109 
72 111 
72 113 
72 116 
72 117 
72 119 
72 121 
72 124 
72 125 
72 127 
72 129 
72 132 
72 133 
72 135 
72 137 
72 139 
72 141 
72 143 
72 146 
72 147 
72 149 
72 152 
72 153 
72 155 
72 158 
72 159 
72 162 
72 164 
72 165 
72 168 
72 170 
72 172 
72 174 
72 176 
73 74 
73 90 
73 91 
73 93 
73 96 
73 98 
73 99 
73 101 
73 103 
73 105 
73 107 
73 109 
73 112 
73 114 
73 116 
73 117 
73 120 
73 121 
73 123 
73 125 
73 128 
73 129 
73 131 
73 133 
73 135 
73 138 
73 139 
73 142 
73 143 
73 146 
73 148 
73 150 
73 151 
73 154 
73 156 
73 158 
73 159 
73 161 
73 164 
73 166 
73 167 
73 170 
73 172 
73 174 
73 175 
74 89 
74 92 
74 94 
74 95 
74 97 
74 100 
74 102 
74 104 
74 106 
74 108 
74 110 
74 111 
74 113 
74 115 
74 118 
74 119 
74 122 
74 124 
74 126 
74 127 
74 130 
74 132 
74 134 
74 136 
74 137 
74 140 
74 141 
74 144 
74 145 
74 147 
74 149 
74 152 
74 153 
74 155 
74 157 
74 160 
74 162 
74 163 
74 165 
74 168 
74 169 
74 171 
74 173 
74 176 
75 76 
75 89 
75 92 
75 93 
75 95 
75 97 
75 99 
75 102 
75 104 
75 106 
75 107 
75 109 
75 112 
75 113 
75 115 
75 118 
75 119 
75 122 
75 124 
75 125 
75 127 
75 130 
75 132 
75 133 
75 136 
75 137 
75 139 
75 142 
75 144 
75 146 
75 148 
75 150 
75 151 
75 154 
75 156 
75 158 
75 159 
75 162 
75 164 
75 166 
75 167 
75 169 
75 171 
75 174 
75 175 
76 90 
76 91 
76 94 
76 96 
76 98 
76 100 
76 101 
76 103 
76 105 
76 108 
76 110 
76 111 
76 114 
76 116 
76 117 
76 120 
76 121 
76 123 
76 126 
76 128 
76 129 
76 131 
76 134 
76 135 
76 138 
76 140 
76 141 
76 143 
76 145 
76 147 
76 149 
76 152 
76 153 
76 155 
76 157 
76 160 
76 161 
76 163 
76 165 
76 168 
76 170 
76 172 
76 173 
76 176 
77 78 
77 90 
77 91 
77 94 
77 96 
77 97 
77 99 
77 101 
77 103 
77 106 
77 108 
77 110 
77 112 
77 113 
77 116 
77 118 
77 119 
77 122 
77 123 
77 125 
77 128 
77 130 
77 132 
77 133 
77 135 
77 137 
77 140 
77 141 
77 143 
77 145 
77 148 
77 149 
77 152 
77 154 
77 155 
77 158 
77 160 
77 162 
77 163 
77 166 
77 167 
77 169 
77 172 
77 174 
77 175 
78 89 
78 92 
78 93 
78 95 
78 98 
78 100 
78 102 
78 104 
78 105 
78 107 
78 109 
78 111 
78 114 
78 115 
78 117 
78 120 
78 121 
78 124 
78 126 
78 127 
78 129 
78 131 
78 134 
78 136 
78 138 
78 139 
78 142 
78 144 
78 146 
78 147 
78 150 
78 151 
78 153 
78 156 
78 157 
78 159 
78 161 
78 164 
78 165 
78 168 
78 170 
78 171 
78 173 
78 176 
79 80 
79 89 
79 91 
79 94 
79 95 
79 98 
79 99 
79 101 
79 103 
79 105 
79 108 
79 109 
79 112 
79 114 
79 115 
79 118 
79 119 
79 122 
79 124 
79 126 
79 127 
79 129 
79 132 
79 134 
79 136 
79 138 
79 140 
79 141 
79 143 
79 146 
79 147 
79 149 
79 151 
79 154 
79 156 
79 158 
79 159 
79 162 
79 163 
79 165 
79 168 
79 170 
79 172 
79 174 
79 175 
80 90 
80 92 
80 93 
80 96 
80 97 
80 100 
80 102 
80 104 
80 106 
80 107 
80 110 
80 111 
80 113 
80 116 
80 117 
80 120 
80 121 
80 123 
80 125 
80 128 
80 130 
80 131 
80 133 
80 135 
80 137 
80 139 
80 142 
80 144 
80 145 
80 148 
80 150 
80 152 
80 153 
80 155 
80 157 
80 160 
80 161 
80 164 
80 166 
80 167 
80 169 
80 171 
80 173 
80 176 
81 82 
81 89 
81 91 
81 94 
81 95 
81 97 
81 100 
81 101 
81 103 
81 106 
81 107 
81 110 
81 112 
81 114 
81 115 
81 118 
81 120 
81 122 
81 124 
81 125 
81 128 
81 129 
81 132 
81 133 
81 135 
81 137 
81 139 
81 142 
81 143 
81 145 
81 147 
81 150 
81 151 
81 153 
81 155 
81 158 
81 160 
81 161 
81 164 
81 165 
81 168 
81 170 
81 171 
81 174 
81 176 
82 90 
82 92 
82 93 
82 96 
82 98 
82 99 
82 102 
82 104 
82 105 
82 108 
82 109 
82 111 
82 113 
82 116 
82 117 
82 119 
82 121 
82 123 
82 126 
82 127 
82 130 
82 131 
82 134 
82 136 
82 138 
82 140 
82 141 
82 144 
82 146 
82 148 
82 149 
82 152 
82 154 
82 156 
82 157 
82 159 
82 162 
82 163 
82 166 
82 167 
82 169 
82 172 
82 173 
82 175 
83 84 
83 90 
83 92 
83 93 
83 95 
83 97 
83 100 
83 102 
83 103 
83 106 
83 108 
83 109 
83 112 
83 114 
83 116 
83 117 
83 120 
83 122 
83 124 
83 126 
83 128 
83 130 
83 132 
83 133 
83 136 
83 138 
83 140 
83 142 
83 143 
83 146 
83 148 
83 149 
83 152 
83 153 
83 156 
83 158 
83 160 
83 162 
83 164 
83 166 
83 168 
83 170 
83 172 
83 173 
83 176 
84 89 
84 91 
84 94 
84 96 
84 98 
84 99 
84 101 
84 104 
84 105 
84 107 
84 110 
84 111 
84 113 
84 115 
84 118 
84 119 
84 121 
84 123 
84 125 
84 127 
84 129 
84 131 
84 134 
84 135 
84 137 
84 139 
84 141 
84 144 
84 145 
84 147 
84 150 
84 151 
84 154 
84 155 
84 157 
84 159 
84 161 
84 163 
84 165 
84 167 
84 169 
84 171 
84 174 
84 175 
85 86 
85 89 
85 92 
85 94 
85 95 
85 98 
85 100 
85 102 
85 103 
85 105 
85 108 
85 110 
85 112 
85 113 
85 115 
85 117 
85 119 
85 122 
85 123 
85 125 
85 128 
85 130 
85 131 
85 134 
85 136 
85 137 
85 139 
85 142 
85 143 
85 146 
85 148 
85 149 
85 152 
85 154 
85 155 
85 157 
85 159 
85 161 
85 164 
85 165 
85 167 
85 170 
85 172 
85 174 
85 176 
86 90 
86 91 
86 93 
86 96 
86 97 
86 99 
86 101 
86 104 
86 106 
86 107 
86 109 
86 111 
86 114 
86 116 
86 118 
86 120 
86 121 
86 124 
86 126 
86 127 
86 129 
86 132 
86 133 
86 135 
86 138 
86 140 
86 141 
86 144 
86 145 
86 147 
86 150 
86 151 
86 153 
86 156 
86 158 
86 160 
86 162 
86 163 
86 166 
86 168 
86 169 
86 171 
86 173 
86 175 
87 88 
87 89 
87 92 
87 93 
87 96 
87 97 
87 99 
87 101 
87 104 
87 105 
87 108 
87 110 
87 111 
87 114 
87 116 
87 117 
87 119 
87 122 
87 123 
87 126 
87 127 
87 130 
87 131 
87 134 
87 135 
87 137 
87 139 
87 142 
87 143 
87 145 
87 147 
87 149 
87 151 
87 154 
87 156 
87 158 
87 160 
87 162 
87 164 
87 166 
87 168 
87 170 
87 171 
87 174 
87 176 
88 90 
88 91 
88 94 
88 95 
88 98 
88 100 
88 102 
88 103 
88 106 
88 107 
88 109 
88 112 
88 113 
88 115 
88 118 
88 120 
88 121 
88 124 
88 125 
88 128 
88 129 
88 132 
88 133 
88 136 
88 138 
88 140 
88 141 
88 144 
88 146 
88 148 
88 150 
88 152 
88 153 
88 155 
88 157 
88 159 
88 161 
88 163 
88 165 
88 167 
88 169 
88 172 
88 173 
88 175 
89 90 
91 92 
93 94 
95 96 
97 98 
99 100 
101 102 
103 104 
105 106 
107 108 
109 110 
111 112 
113 114 
115 116 
117 118 
119 120 
121 122 
123 124 
125 126 
127 128 
129 130 
131 132 
133 134 
135 136 
137 138 
139 140 
141 142 
143 144 
145 146 
147 148 
149 150 
151 152 
153 154 
155 156 
157 158 
159 160 
161 162 
163 164 
165 166 
167 168 
169 170 
171 172 
173 174 
175 176 
